c Lingeling SAT Solver
c 
c Version azf 92032848c138b2f33629ad24394d60a3787a1046
c 
c Copyright (C) 2010-2014 Armin Biere JKU Linz Austria.
c All rights reserved.
c 
c released Don Mai 22 22:08:00 CEST 2014
c compiled Mon Oct  6 05:55:43 PDT 2014
c 
c gcc (Ubuntu 4.8.2-19ubuntu1) 4.8.2
c -Wall -O3 -DNDBLSCR -DNLGLOG -DNDEBUG -DNCHKSOL -DNLGLPICOSAT -DNLGLDRUPLIG
c -DNLGLYALSAT
c Linux ubuntu 3.13.0-32-generic x86_64
c 
c reading input file benchmark-sat/translations/gc-le450_25d-20.cnf
c no embedded options
c found 'p cnf 9000 434450' header
c read 9000 variables, 434450 clauses, 877000 literals in 0.00 seconds
c 
c  seconds         irredundant          redundant clauses agility   height
c          variables clauses conflicts large ternary binary    glue         MB
c 
c S    0.0    9000   434450         0       0      0     0   0  0.0   0.0    9
c P    1.0    8746   429370      5000    2563      0     0   3 23.6 135.0   13
c P    2.0    8746   348696      5000    2563      0 80674   3 23.6 135.0   14
c P    5.0    8746   348696      5000    2563      0 80674   3 23.6 135.0   17
c S   10.0    8550   348500      7656    2505      0 76950   3 23.4 116.7   16
c S   20.0    8550   348500    103905   15022      0 76950   3 22.6  72.6   21
c S   30.0    8550   348500    213701   23319      0 76950   3 25.9  71.7   39
c S   40.0    8550   348500    334293   22225      0 76950   3 28.1  71.9   38
c S   50.0    8550   348500    436683   25001      0 76950   3 26.7  71.5   41
c S   60.0    8550   348500    567919   31039      0 76950   2 27.8  72.0   46
c S  120.0    8550   348500   1208008   50218      0 76950   2 31.5  71.6   56
c S  180.0    8550   348500   1840412   52452      0 76950   3 31.4  71.7   62
c S  240.0    8550   348500   2473211   72955      0 76950   3 32.1  72.0   96
c S  300.0    8550   348500   3036100   91329      0 76950   3 33.6  72.8   76
c S  600.0    8550   348500   5606492   69907      0 76950   2 36.8  73.7   81
c S  900.1    8550   348500   8237412  120267      0 76950   2 39.4  74.0  131
